Maximize
score: + 134.349 c0 + 67.418 c1 + 195.839 c2 + 125.419 c3 + 503.434 c4 + 79.509 c5 + 51.591 c6 + 32.817 c7 + 50.969 c8 + 64.894 c9 + 14.501 c10 + 101.591 c11 + 21.887 c12 + 102.869 c13 + 35.169 c14 + 11.808 c15 + 745.232 c16 + 139.435 c17 + 54.186 c18 + 46.52 c19 + 892.101 c20 + 227.537 c21 + 97.834 c22 + 48.721 c23 + 5.709 c24 + 24.723 c25 + 1.336 c26 + 0.132 c27 + 21.131 c28 + 56.275 c29 + 74.474 c30 + 271.79 c31 + 119.384 c32 + 27.884 c33 + 36.663 c34 + 11.272 c35 + 0.984 c36 + 511.734 c37 + 23.051 c38 + 76.669 c39 + 61.873 c40 + 4.912 c41 + 45.682 c42 + 35.274 c43 + 198.372 c44 + 8.406 c45 + 8.617 c46 + 26.313 c47 + 50.352 c48 + 71.376 c49 + 26.313 c50 + 18.461 c51 + 8.39 c52 + 3.32 c53 + 131.439 c54 + 251.294 c55 + 2.831 c56 + 2.098 c57 + 6.342 c58 + 77.087 c59 + 0.525 c60 + 13.336 c61 + 60.313 c62 + 58.114 c63 + 71.072 c64 + 9.614 c65 + 21.969 c66 + 16.409 c67 + 23.941 c68 + 3.927 c69 + 3.428 c70 + 3.301 c71 + 43.179 c72 + 35.966 c73 + 124.77 c74 + 121.172 c75 + 10.787 c76 + 42.384 c77 + 10.212 c78 + 50.498 c79 + 13.618 c80 + 13.526 c81 + 28.653 c82 + 60.989 c83 + 0.16 c84 + 27.182 c85 + 2.055 c86 + 12.269 c87 + 18.97 c88 + 35.896 c89 + 18.327 c90 + 14.517 c91 + 1.25 c92 + 369.554 c93 + 271.712 c94 + 194.847 c95 + 8.788 c96 + 277.409 c97 + 134.808 c98 + 25.251 c99 + 107.243 c100 + 40.08 c101 + 7.194 c102 + 15.208 c103 + 15.374 c104 + 29.491 c105 + 24.692 c106 + 30.471 c107 + 9.486 c108 + 1.727 c109 + 33.522 c110 + 15.52 c111 + 0.386 c112 + 33.482 c113 + 13.288 c114 + 15.158 c115 + 98.784 c116 + 25.656 c117 + 35.898 c118 + 16.989 c119 + 2.377 c120 + 1.419 c121 + 0.499 c122 + 0.716 c123 + 108.062 c124 + 6.534 c125 + 4.94 c126 + 3.666 c127 + 63.809 c128 + 12.314 c129 + 1.029 c130 + 6.74 c131 + 7.247 c132 + 13.734 c133 + 33.832 c134 + 53.175 c135 + 5.312 c136 + 38.509 c137 + 36.039 c138 + 17.416 c139 + 37.287 c140 + 3.573 c141 + 10.374 c142 + 0.814 c143 + 3.335 c144 + 116.668 c145 + 428.539 c146 + 0.921 c147 + 3.441 c148 + 8.319 c149 + 31.405 c150 + 12.655 c151 + 9.658 c152 + 7.793 c153 + 3.542 c154 + 9.951 c155 + 4.799 c156

Subject To
index_0: s40 + s42 + s43 + s44 + s47 + s48 + s50 + s51 + s52 + s57 + s59 + s60 + s63 + s85 + s86 - c0 >= 0
index_1: s3 + s4 + s7 + s17 + s34 + s44 + s52 + s63 + s66 + s72 + s74 - c1 >= 0
index_2: s21 + s22 + s23 + s28 + s29 + s30 + s32 + s33 + s35 + s36 + s37 + s39 + s41 + s49 + s58 + s60 + s68 + s71 + s86 + s88 - c2 >= 0
index_3: s3 + s4 + s7 + s17 + s34 + s44 + s52 + s63 + s67 + s72 + s75 - c3 >= 0
index_4: s3 + s4 + s17 + s34 + s44 + s52 + s63 + s66 + s72 + s74 - c4 >= 0
index_5: s26 + s27 + s37 + s40 + s42 + s49 + s50 + s53 + s64 + s65 + s67 + s85 - c5 >= 0
index_6: s42 + s43 + s45 + s47 + s48 + s50 + s51 + s52 + s58 + s59 + s60 + s63 - c6 >= 0
index_7: s20 + s21 + s23 + s26 + s27 + s30 + s35 + s37 + s39 + s43 + s44 + s45 + s55 + s56 + s63 + s65 + s67 + s68 + s71 + s72 + s74 + s76 + s78 + s80 + s82 + s84 + s88 - c7 >= 0
index_8: s23 + s24 + s25 + s26 + s27 + s35 + s36 + s40 + s42 + s49 + s50 + s51 + s52 + s53 + s64 + s65 + s67 + s68 + s70 + s71 + s72 + s73 + s75 + s76 + s77 + s78 + s79 + s80 + s82 + s83 + s84 + s85 - c8 >= 0
index_9: s40 + s42 + s43 + s44 + s47 + s48 + s50 + s51 + s52 + s57 + s59 + s60 + s63 + s85 + s86 - c9 >= 0
index_10: s65 + s68 + s69 + s73 + s84 + s85 - c10 >= 0
index_11: s40 + s42 + s44 + s51 + s66 + s79 + s85 + s87 - c11 >= 0
index_12: s3 + s4 + s22 + s43 - c12 >= 0
index_13: s4 - c13 >= 0
index_14: s10 + s32 + s42 + s43 + s70 - c14 >= 0
index_15: s35 + s40 + s42 + s50 + s54 + s59 + s92 + s94 - c15 >= 0
index_16: s23 + s24 + s35 + s36 + s49 + s50 - c16 >= 0
index_17: s2 + s3 + s4 + s5 + s9 + s15 + s16 + s17 + s18 + s19 + s20 + s39 + s91 + s93 + s96 - c17 >= 0
index_18: s14 - c18 >= 0
index_19: s6 + s45 + s55 + s87 - c19 >= 0
index_20: s5 + s6 + s31 + s33 + s64 + s73 + s74 + s75 + s85 + s95 + s100 - c20 >= 0
index_21: s2 + s3 - c21 >= 0
index_22: s3 - c22 >= 0
index_23: s0 + s1 - c23 >= 0
index_24: s2 - c24 >= 0
index_25: s3 + s4 + s17 + s34 + s44 + s52 + s63 + s66 + s67 + s72 + s74 - c25 >= 0
index_26: s20 + s21 + s22 + s23 + s96 - c26 >= 0
index_27: s20 + s23 + s24 + s25 + s29 + s31 + s32 + s34 + s39 + s41 + s55 + s64 + s74 + s77 + s88 - c27 >= 0
index_28: s21 + s23 + s26 + s27 + s29 + s30 + s31 + s35 + s37 + s39 + s43 + s44 + s45 + s55 + s56 + s59 + s65 + s66 + s67 + s68 + s71 + s72 + s74 + s76 + s78 + s80 + s81 + s82 + s84 - c28 >= 0
index_29: s10 + s15 + s16 + s24 + s29 + s40 + s42 + s50 + s52 + s62 + s63 + s66 + s67 + s68 + s78 + s81 + s83 + s84 + s99 - c29 >= 0
index_30: s23 - c30 >= 0
index_31: s31 + s35 + s44 + s45 + s51 + s54 + s63 + s86 + s88 + s89 + s95 - c31 >= 0
index_32: s14 - c32 >= 0
index_33: s88 + s89 - c33 >= 0
index_34: s21 + s23 + s34 + s36 + s56 - c34 >= 0
index_35: s23 + s34 + s36 + s57 - c35 >= 0
index_36: s19 + s21 + s23 + s34 + s36 + s54 + s56 + s96 - c36 >= 0
index_37: s18 + s20 + s39 + s40 + s63 - c37 >= 0
index_38: s2 + s10 + s12 + s14 + s19 + s22 + s23 + s25 + s27 + s28 + s30 + s32 + s33 + s36 + s37 + s38 + s39 + s40 + s43 + s44 + s47 + s48 + s50 + s52 + s54 + s56 + s59 + s62 + s63 + s67 + s69 + s70 + s71 + s73 + s75 + s76 + s77 + s78 + s80 + s86 + s88 + s89 - c38 >= 0
index_39: s26 + s27 + s40 + s42 + s49 + s50 + s54 - c39 >= 0
index_40: s22 + s62 + s65 + s69 + s78 + s92 + s93 + s96 - c40 >= 0
index_41: s90 + s91 - c41 >= 0
index_42: s90 - c42 >= 0
index_43: s89 + s90 - c43 >= 0
index_44: s1 + s2 - c44 >= 0
index_45: s1 + s2 + s22 + s65 + s88 + s92 + s93 - c45 >= 0
index_46: s88 - c46 >= 0
index_47: s38 + s39 + s40 + s42 + s51 + s64 + s79 + s80 + s86 + s88 - c47 >= 0
index_48: s40 + s42 + s44 + s51 + s65 + s66 - c48 >= 0
index_49: s27 + s30 + s31 + s32 + s38 + s39 + s40 + s41 + s44 + s51 + s59 + s62 + s63 + s64 + s66 + s73 + s74 + s76 + s77 + s78 + s79 + s80 + s84 + s86 + s88 - c49 >= 0
index_50: s35 + s40 + s42 + s79 + s80 + s82 + s83 + s84 - c50 >= 0
index_51: s23 + s24 + s25 + s26 + s27 + s35 + s36 + s40 + s42 + s49 + s50 + s52 + s53 + s64 + s65 + s67 + s68 + s70 + s72 + s73 + s75 + s76 + s78 + s80 + s83 + s86 - c51 >= 0
index_52: s17 + s21 + s22 + s24 + s34 + s40 + s42 + s64 + s65 + s70 + s78 + s81 + s82 + s83 + s84 - c52 >= 0
index_53: s3 + s4 + s7 + s9 + s15 + s16 + s91 + s92 + s93 + s94 + s95 + s96 + s98 + s100 - c53 >= 0
index_54: s95 + s96 - c54 >= 0
index_55: s40 + s42 + s43 + s45 + s47 + s48 + s50 + s51 + s52 + s58 + s59 + s60 + s63 + s85 + s87 - c55 >= 0
index_56: s21 + s22 + s28 + s30 + s33 + s36 + s39 + s41 + s59 + s60 + s71 - c56 >= 0
index_57: s71 + s81 - c57 >= 0
index_58: s92 + s93 - c58 >= 0
index_59: s19 + s20 - c59 >= 0
index_60: s2 + s4 + s5 + s9 + s15 + s16 + s19 + s20 + s91 - c60 >= 0
index_61: s23 + s29 + s30 + s35 + s37 + s39 + s49 + s68 + s86 + s88 - c61 >= 0
index_62: s96 - c62 >= 0
index_63: s92 + s94 + s96 + s98 + s100 - c63 >= 0
index_64: s23 + s24 + s40 + s42 + s71 + s80 + s82 + s83 + s85 - c64 >= 0
index_65: s14 + s16 + s17 - c65 >= 0
index_66: s3 + s4 + s15 + s16 + s17 - c66 >= 0
index_67: s36 + s45 + s61 + s62 + s69 + s70 + s71 + s83 - c67 >= 0
index_68: s36 + s37 + s45 + s51 + s61 + s62 + s65 + s68 + s69 + s70 + s71 + s74 + s77 + s78 + s80 + s83 + s84 + s85 - c68 >= 0
index_69: s40 + s41 + s42 + s44 + s66 + s79 + s85 + s87 - c69 >= 0
index_70: s35 + s40 + s42 + s50 + s51 + s54 + s59 + s71 + s77 + s80 - c70 >= 0
index_71: s40 + s42 + s44 + s66 + s79 + s85 + s87 - c71 >= 0
index_72: s42 + s43 + s45 + s47 + s48 + s50 + s51 + s52 + s58 + s60 + s63 - c72 >= 0
index_73: s23 + s24 + s25 + s35 + s36 + s39 - c73 >= 0
index_74: s36 + s45 + s62 + s69 + s70 + s84 + s85 + s86 - c74 >= 0
index_75: s20 + s21 + s24 + s25 + s26 + s82 - c75 >= 0
index_76: s23 + s26 + s48 + s71 + s80 + s83 + s86 - c76 >= 0
index_77: s32 + s71 - c77 >= 0
index_78: s32 + s34 + s39 + s41 + s64 - c78 >= 0
index_79: s33 + s39 + s41 + s46 + s47 - c79 >= 0
index_80: s34 + s39 + s41 + s46 + s47 - c80 >= 0
index_81: s34 + s39 + s41 + s46 + s47 + s48 + s62 + s63 + s64 + s65 + s69 + s76 - c81 >= 0
index_82: s17 - c82 >= 0
index_83: s21 + s22 + s25 + s33 + s36 + s40 + s42 + s55 + s61 + s64 + s78 + s84 + s86 + s96 - c83 >= 0
index_84: s30 + s46 + s88 - c84 >= 0
index_85: s20 + s21 + s23 + s24 + s26 + s29 + s47 + s48 + s74 + s82 - c85 >= 0
index_86: s32 + s34 + s39 + s41 + s63 + s64 - c86 >= 0
index_87: s27 + s28 + s31 + s39 + s44 + s47 + s52 + s59 + s63 + s64 + s66 + s73 + s77 + s78 + s84 - c87 >= 0
index_88: s7 + s8 - c88 >= 0
index_89: s74 + s75 + s76 - c89 >= 0
index_90: s23 + s27 + s46 + s62 + s63 + s85 - c90 >= 0
index_91: s18 + s22 + s27 + s29 + s30 + s37 + s43 + s48 + s55 + s65 + s68 + s72 + s74 + s76 + s78 - c91 >= 0
index_92: s23 + s24 + s25 + s26 + s43 + s70 + s80 + s82 + s85 + s93 + s94 - c92 >= 0
index_93: s5 + s35 + s49 + s55 + s72 + s86 - c93 >= 0
index_94: s30 + s31 + s33 + s38 + s39 + s44 + s51 + s61 + s63 + s64 + s74 + s88 - c94 >= 0
index_95: s20 + s21 + s23 + s24 + s36 + s40 + s42 + s45 + s50 + s66 + s68 + s70 + s71 + s84 + s87 - c95 >= 0
index_96: s9 + s13 + s14 - c96 >= 0
index_97: s9 - c97 >= 0
index_98: s93 - c98 >= 0
index_99: s93 - c99 >= 0
index_100: s5 + s6 + s7 + s95 - c100 >= 0
index_101: s11 + s12 + s13 + s14 - c101 >= 0
index_102: s9 + s12 - c102 >= 0
index_103: s9 + s10 + s12 - c103 >= 0
index_104: s9 + s10 + s12 + s13 + s14 - c104 >= 0
index_105: s8 + s99 + s100 - c105 >= 0
index_106: s8 - c106 >= 0
index_107: s22 + s23 + s24 + s25 + s26 + s27 + s29 + s30 + s34 + s43 + s47 + s50 + s52 + s61 + s66 + s70 + s71 + s75 + s77 + s82 + s85 + s92 + s94 - c107 >= 0
index_108: s57 + s100 - c108 >= 0
index_109: s20 + s22 + s57 + s82 + s94 - c109 >= 0
index_110: s91 + s92 - c110 >= 0
index_111: s21 + s28 + s37 + s39 + s42 + s52 + s58 + s60 + s68 + s69 + s77 + s79 + s80 + s88 - c111 >= 0
index_112: s94 - c112 >= 0
index_113: s13 + s18 + s19 - c113 >= 0
index_114: s27 + s96 + s98 + s99 + s100 - c114 >= 0
index_115: s13 + s19 + s96 + s98 + s99 + s100 - c115 >= 0
index_116: s10 + s13 + s14 + s28 + s60 - c116 >= 0
index_117: s18 + s94 + s95 - c117 >= 0
index_118: s25 + s27 + s30 + s38 + s54 + s80 - c118 >= 0
index_119: s30 + s33 + s49 - c119 >= 0
index_120: s23 + s27 + s30 + s35 + s40 + s42 + s49 + s67 + s68 + s86 + s88 - c120 >= 0
index_121: s13 + s37 + s38 - c121 >= 0
index_122: s13 + s25 + s38 - c122 >= 0
index_123: s9 + s11 - c123 >= 0
index_124: s27 + s29 + s34 + s80 + s92 - c124 >= 0
index_125: s9 + s13 + s18 + s23 + s27 + s28 + s33 + s34 + s36 + s43 + s46 + s47 + s52 + s57 + s59 + s67 + s94 + s99 - c125 >= 0
index_126: s16 + s20 + s23 + s24 + s25 + s26 + s27 + s37 - c126 >= 0
index_127: s3 + s4 + s17 + s30 + s34 + s54 + s93 + s94 - c127 >= 0
index_128: s20 + s21 + s22 + s23 + s25 + s27 + s30 + s34 + s36 + s54 + s57 + s80 + s93 + s96 - c128 >= 0
index_129: s60 + s61 + s62 - c129 >= 0
index_130: s28 + s42 + s57 + s61 + s72 + s82 - c130 >= 0
index_131: s46 - c131 >= 0
index_132: s5 + s13 - c132 >= 0
index_133: s36 + s39 + s41 + s52 + s59 + s88 + s96 - c133 >= 0
index_134: s18 + s39 + s51 + s55 + s64 + s67 + s72 + s75 - c134 >= 0
index_135: s44 + s52 + s63 + s67 + s77 + s88 - c135 >= 0
index_136: s14 + s30 + s32 + s60 + s67 - c136 >= 0
index_137: s8 + s9 + s18 + s22 + s23 + s25 + s26 + s28 + s29 + s30 + s33 + s35 + s36 + s39 + s41 + s43 + s45 + s46 + s47 + s48 + s50 + s51 + s52 + s57 + s59 + s61 + s67 + s77 + s94 + s98 + s99 - c137 >= 0
index_138: s18 + s61 + s67 + s81 - c138 >= 0
index_139: s23 - c139 >= 0
index_140: s45 + s72 + s78 + s82 + s86 - c140 >= 0
index_141: s81 + s87 - c141 >= 0
index_142: s16 + s24 + s25 + s36 + s38 + s39 + s40 + s41 + s42 + s46 + s50 + s51 + s61 + s64 + s79 + s80 + s83 + s85 + s87 - c142 >= 0
index_143: s25 + s48 + s54 + s64 + s67 + s71 + s80 - c143 >= 0
index_144: s28 + s32 + s33 + s35 + s36 + s37 + s61 + s88 - c144 >= 0
index_145: s29 + s32 + s55 + s61 + s78 - c145 >= 0
index_146: s32 + s37 + s42 + s43 + s45 + s46 + s55 + s60 + s72 + s75 + s78 + s82 + s88 - c146 >= 0
index_147: s22 + s28 + s29 + s49 + s61 + s77 + s78 - c147 >= 0
index_148: s32 + s55 - c148 >= 0
index_149: s27 + s65 + s94 + s95 + s99 + s100 - c149 >= 0
index_150: s25 + s27 + s47 + s50 + s61 + s62 + s65 + s69 + s71 + s73 + s77 + s79 + s83 + s85 - c150 >= 0
index_151: s30 + s38 + s39 + s40 + s42 + s50 + s61 + s62 + s63 + s64 + s66 + s68 + s70 + s76 + s80 + s84 + s86 - c151 >= 0
index_152: s30 + s42 + s57 + s72 - c152 >= 0
index_153: s25 + s28 + s75 - c153 >= 0
length: s0 + s1 + s2 + s3 + s4 + s5 + s6 + s7 + s8 + s9 + s10 + s11 + s12 + s13 + s14 + s15 + s16 + s17 + s18 + s19 + s20 + s21 + s22 + s23 + s24 + s25 + s26 + s27 + s28 + s29 + s30 + s31 + s32 + s33 + s34 + s35 + s36 + s37 + s38 + s39 + s40 + s41 + s42 + s43 + s44 + s45 + s46 + s47 + s48 + s49 + s50 + s51 + s52 + s53 + s54 + s55 + s56 + s57 + s58 + s59 + s60 + s61 + s62 + s63 + s64 + s65 + s66 + s67 + s68 + s69 + s70 + s71 + s72 + s73 + s74 + s75 + s76 + s77 + s78 + s79 + s80 + s81 + s82 + s83 + s84 + s85 + s86 + s87 + s88 + s89 + s90 + s91 + s92 + s93 + s94 + s95 + s96 + s97 + s98 + s99 + s100 <= 7



Binary
c0
c1
c2
c3
c4
c5
c6
c7
c8
c9
c10
c11
c12
c13
c14
c15
c16
c17
c18
c19
c20
c21
c22
c23
c24
c25
c26
c27
c28
c29
c30
c31
c32
c33
c34
c35
c36
c37
c38
c39
c40
c41
c42
c43
c44
c45
c46
c47
c48
c49
c50
c51
c52
c53
c54
c55
c56
c57
c58
c59
c60
c61
c62
c63
c64
c65
c66
c67
c68
c69
c70
c71
c72
c73
c74
c75
c76
c77
c78
c79
c80
c81
c82
c83
c84
c85
c86
c87
c88
c89
c90
c91
c92
c93
c94
c95
c96
c97
c98
c99
c100
c101
c102
c103
c104
c105
c106
c107
c108
c109
c110
c111
c112
c113
c114
c115
c116
c117
c118
c119
c120
c121
c122
c123
c124
c125
c126
c127
c128
c129
c130
c131
c132
c133
c134
c135
c136
c137
c138
c139
c140
c141
c142
c143
c144
c145
c146
c147
c148
c149
c150
c151
c152
c153
c154
c155
c156
s0
s1
s2
s3
s4
s5
s6
s7
s8
s9
s10
s11
s12
s13
s14
s15
s16
s17
s18
s19
s20
s21
s22
s23
s24
s25
s26
s27
s28
s29
s30
s31
s32
s33
s34
s35
s36
s37
s38
s39
s40
s41
s42
s43
s44
s45
s46
s47
s48
s49
s50
s51
s52
s53
s54
s55
s56
s57
s58
s59
s60
s61
s62
s63
s64
s65
s66
s67
s68
s69
s70
s71
s72
s73
s74
s75
s76
s77
s78
s79
s80
s81
s82
s83
s84
s85
s86
s87
s88
s89
s90
s91
s92
s93
s94
s95
s96
s97
s98
s99
s100
End